c preprocessed version of RandomBoundedToleranceGraph_60, 59 vertices, 1165 edges
p td 59 1165
0 1
0 10
0 9
0 6
0 12
0 11
0 15
0 16
0 20
0 24
0 23
0 32
0 34
0 30
0 33
0 43
0 41
0 44
0 48
0 54
0 55
2 1
1 7
1 5
1 8
1 10
1 9
1 6
1 13
1 11
1 14
1 15
1 17
1 18
1 16
1 20
1 19
1 21
1 22
1 24
1 23
1 26
1 25
1 28
1 31
1 32
1 27
1 35
1 30
1 36
1 33
1 37
1 42
1 43
1 45
1 44
1 46
1 49
1 48
1 50
12 1
34 1
41 1
53 1
54 1
55 1
52 1
3 2
2 4
2 7
2 5
2 8
2 6
2 13
2 14
2 17
2 18
2 16
2 19
2 21
2 22
2 26
2 25
2 28
2 31
2 29
2 27
2 35
2 38
2 36
2 37
2 42
2 43
2 40
2 45
2 44
2 46
2 47
2 49
2 48
2 50
2 51
12 2
34 2
41 2
53 2
55 2
52 2
3 4
3 5
3 6
3 18
3 16
3 19
3 23
3 29
3 30
3 38
3 33
3 37
3 40
3 45
3 44
3 46
3 47
3 48
3 50
3 51
12 3
34 3
52 3
4 5
4 6
4 18
4 16
4 19
4 23
4 28
4 29
4 27
4 30
4 38
4 33
4 37
4 40
4 45
4 44
4 46
4 47
4 48
4 50
4 51
12 4
34 4
41 4
52 4
5 6
5 13
5 17
5 18
5 16
5 19
5 23
5 28
5 29
5 27
5 35
5 30
5 38
5 36
5 33
5 37
5 42
5 40
5 45
5 44
5 46
5 47
5 48
5 50
5 51
12 5
39 5
34 5
41 5
53 5
55 5
52 5
7 6
8 6
10 6
9 6
6 13
6 11
6 14
6 15
6 17
6 18
6 16
6 20
6 19
6 21
6 22
6 24
6 23
6 26
6 25
6 28
6 31
6 32
6 29
6 27
6 35
6 30
6 38
6 36
6 33
6 37
6 42
6 43
6 40
6 45
6 44
6 46
6 47
6 49
6 48
6 50
6 51
12 6
34 6
41 6
53 6
54 6
55 6
52 6
7 8
7 9
7 13
7 11
7 14
7 15
7 16
7 20
7 19
7 22
7 23
7 26
7 25
7 28
7 35
7 30
7 33
7 43
7 44
7 46
7 49
7 48
7 50
12 7
34 7
41 7
54 7
55 7
8 9
8 13
8 11
8 14
8 15
8 16
8 20
8 19
8 21
8 22
8 23
8 26
8 25
8 31
8 35
8 30
8 33
8 43
8 44
8 46
8 49
8 48
8 50
12 8
34 8
41 8
54 8
55 8
10 9
9 11
9 14
9 15
9 16
9 20
9 21
9 22
9 24
9 23
9 25
9 31
9 32
9 30
9 33
9 43
9 44
9 49
9 48
12 9
34 9
41 9
54 9
55 9
10 11
10 14
10 15
10 16
10 20
10 21
10 22
10 24
10 23
10 31
10 32
10 30
10 33
10 44
10 48
12 10
34 10
41 10
54 10
55 10
12 11
13 11
11 14
11 15
11 16
11 20
11 19
11 21
11 22
11 24
11 23
11 25
11 31
11 32
11 35
11 30
11 33
11 43
11 44
11 46
11 49
11 48
11 50
34 11
41 11
54 11
55 11
12 13
12 14
12 15
12 17
12 18
12 16
12 20
12 19
12 21
12 22
12 24
12 23
12 26
12 25
12 28
12 31
12 32
12 29
12 34
12 27
12 35
12 30
12 38
12 36
12 33
12 37
12 42
12 43
12 41
12 40
12 44
12 46
12 47
12 49
12 48
12 50
12 51
12 53
12 54
12 55
12 52
13 14
13 17
13 18
13 16
13 20
13 19
13 21
13 22
13 23
13 26
13 25
13 28
13 31
13 27
13 35
13 30
13 36
13 33
13 42
13 43
13 45
13 44
13 46
13 47
13 49
13 48
13 50
34 13
41 13
53 13
54 13
55 13
52 13
14 15
14 16
14 20
14 19
14 21
14 22
14 24
14 23
14 26
14 25
14 31
14 32
14 35
14 30
14 33
14 43
14 44
14 46
14 49
14 48
14 50
34 14
41 14
54 14
55 14
15 16
15 20
15 21
15 22
15 24
15 23
15 25
15 31
15 32
15 30
15 33
15 43
15 44
15 46
15 49
15 48
34 15
41 15
54 15
55 15
17 16
18 16
16 20
16 19
16 21
16 22
16 24
16 23
16 26
16 25
16 28
16 31
16 32
16 29
16 27
16 35
16 30
16 38
16 36
16 33
16 37
16 42
16 43
16 40
16 45
16 44
16 46
16 47
16 49
16 48
16 50
16 51
34 16
41 16
53 16
54 16
55 16
52 16
17 18
17 19
17 23
17 26
17 25
17 28
17 35
17 30
17 36
17 33
17 42
17 43
17 45
17 44
17 46
17 48
17 50
34 17
41 17
53 17
54 17
55 17
52 17
18 19
18 23
18 26
18 25
18 28
18 29
18 27
18 35
18 30
18 38
18 36
18 33
18 37
18 42
18 43
18 40
18 45
18 44
18 46
18 47
18 48
18 50
18 51
39 18
34 18
41 18
53 18
54 18
55 18
52 18
20 19
19 21
19 22
19 23
19 26
19 25
19 28
19 31
19 29
19 27
19 35
19 30
19 38
19 36
19 33
19 37
19 42
19 43
19 40
19 45
19 44
19 46
19 47
19 49
19 48
19 50
19 51
34 19
41 19
53 19
54 19
55 19
52 19
20 21
20 22
20 24
20 23
20 25
20 31
20 32
20 35
20 30
20 36
20 33
20 42
20 43
20 44
20 46
20 49
20 48
20 50
34 20
41 20
54 20
55 20
21 22
21 24
21 23
21 25
21 31
21 32
21 35
21 30
21 33
21 43
21 44
21 49
21 48
21 50
34 21
41 21
54 21
55 21
22 23
22 26
22 25
22 31
22 32
22 35
22 30
22 33
22 43
22 44
22 46
22 49
22 48
22 50
34 22
41 22
54 22
55 22
24 23
23 26
23 25
23 28
23 31
23 32
23 29
23 27
23 35
23 30
23 38
23 36
23 33
23 37
23 42
23 43
23 40
23 44
23 46
23 47
23 49
23 48
23 50
23 51
34 23
41 23
53 23
54 23
55 23
52 23
24 25
24 32
24 30
24 33
24 43
24 44
24 49
24 48
34 24
41 24
54 24
55 24
26 25
25 31
25 35
25 30
25 36
25 33
25 42
25 43
25 44
25 46
25 49
25 48
25 50
34 25
41 25
53 25
54 25
55 25
52 25
26 27
26 35
26 30
26 36
26 33
26 42
26 43
26 44
26 46
26 47
26 48
26 50
34 26
41 26
53 26
55 26
52 26
28 27
34 27
27 35
27 30
27 36
27 33
27 37
27 43
27 40
27 45
27 44
27 46
27 47
27 48
27 50
41 27
55 27
52 27
28 29
28 35
28 30
28 38
28 36
28 33
28 42
28 40
28 45
28 44
28 46
28 47
28 48
28 50
28 51
34 28
41 28
53 28
55 28
52 28
29 30
29 38
29 33
29 37
29 40
29 45
29 44
29 46
29 47
29 48
29 50
29 51
34 29
41 29
52 29
31 30
32 30
34 30
35 30
30 38
30 36
30 33
30 37
30 42
30 43
30 40
30 44
30 46
30 47
30 49
30 48
30 50
30 51
41 30
53 30
54 30
55 30
52 30
31 32
31 35
31 33
31 43
31 44
31 46
31 49
31 48
31 50
34 31
41 31
54 31
55 31
32 33
32 44
32 48
34 32
41 32
55 32
34 33
35 33
38 33
36 33
33 37
33 42
33 43
33 40
33 45
33 44
33 46
33 47
33 49
33 48
33 50
33 51
41 33
53 33
54 33
55 33
52 33
34 35
34 38
34 36
34 37
34 42
34 43
34 41
34 40
34 45
34 44
34 46
34 47
34 49
34 48
34 50
34 51
34 53
34 54
34 55
34 52
35 36
35 42
35 43
35 40
35 45
35 44
35 46
35 47
35 49
35 48
35 50
41 35
53 35
54 35
55 35
52 35
36 37
36 42
36 43
36 45
36 44
36 46
36 47
36 48
36 50
41 36
53 36
54 36
55 36
52 36
38 37
37 40
37 45
37 44
37 46
37 47
37 48
37 50
37 51
41 37
55 37
52 37
39 38
38 40
38 45
38 44
38 46
38 47
38 48
38 50
38 51
52 38
39 40
39 45
39 44
39 46
39 47
39 51
41 40
40 45
40 44
40 46
40 47
40 48
40 50
40 51
52 40
41 42
41 43
41 45
41 44
41 46
41 47
41 49
41 48
41 50
41 53
41 54
41 55
41 52
42 43
42 45
42 44
42 46
42 48
42 50
53 42
54 42
55 42
52 42
43 44
43 46
43 47
43 49
43 48
43 50
53 43
54 43
55 43
52 43
45 44
44 46
44 47
44 49
44 48
44 50
44 51
53 44
54 44
55 44
52 44
45 46
45 47
45 50
45 51
53 45
55 45
52 45
46 47
46 49
46 48
46 50
46 51
53 46
54 46
55 46
52 46
47 48
47 50
47 51
55 47
52 47
49 48
48 50
48 51
53 48
54 48
55 48
52 48
49 50
54 49
55 49
50 51
53 50
54 50
55 50
52 50
52 51
53 52
55 52
53 54
53 55
54 55
56 0
56 1
56 7
56 8
56 10
56 9
56 6
56 13
56 11
56 14
56 15
56 16
56 20
56 57
56 21
56 22
56 24
56 31
56 32
56 34
56 30
56 58
56 41
56 46
56 49
56 55
57 0
57 4
57 1
57 7
57 5
57 8
57 10
57 9
57 6
57 12
57 13
57 11
57 14
57 15
57 17
57 18
57 16
57 20
57 19
57 21
57 22
57 24
57 23
57 26
57 25
57 28
57 31
57 32
57 29
57 27
57 35
57 30
57 38
57 36
57 58
57 33
57 42
57 43
57 40
57 44
57 46
57 47
57 49
57 48
57 50
57 51
57 34
57 41
57 53
57 54
57 55
57 52
58 0
58 3
58 2
58 4
58 1
58 7
58 5
58 8
58 10
58 9
58 6
58 12
58 13
58 11
58 14
58 15
58 17
58 18
58 16
58 20
58 19
58 39
58 21
58 22
58 24
58 23
58 26
58 25
58 28
58 31
58 32
58 29
58 34
58 27
58 35
58 30
58 38
58 36
58 33
58 37
58 42
58 43
58 40
58 45
58 44
58 46
58 47
58 49
58 48
58 50
58 51
58 41
58 53
58 54
58 55
58 52
